500
500
400
400
400
399
398
396
396
396
394
393
393
392
392
391
391
390
390
389
388
387
387
387
385
385
385
383
382
382
382
381
380
380
378
378
377
375
375
374
374
373
373
372
372
371
371
370
369
369
369
368
368
367
366
366
365
365
363
362
362
362
361
360
359
357
356
355
355
354
354
354
354
354
351
351
350
350
349
348
348
348
347
346
345
345
345
345
344
344
343
342
342
341
340
340
340
340
337
337
337
337
336
336
336
335
335
334
334
331
331
331
331
330
329
327
327
325
325
323
323
323
323
321
321
320
320
318
318
317
316
316
314
314
314
313
313
312
312
311
311
310
310
310
309
309
309
308
308
308
308
306
306
304
303
303
302
301
301
300
300
299
298
296
296
295
293
293
291
291
290
288
288
287
286
285
285
285
285
285
283
283
281
281
281
281
280
279
278
277
275
275
275
274
273
272
272
271
270
270
269
269
269
268
268
267
266
265
265
265
265
265
262
262
262
262
262
261
260
259
259
258
258
257
257
256
256
256
256
254
254
254
254
254
253
251
251
250
250
249
249
248
248
247
245
245
244
244
243
243
242
241
240
240
240
239
236
236
236
236
235
235
233
233
231
231
228
228
227
227
226
226
226
226
226
225
224
223
220
220
220
218
218
217
217
216
215
213
213
208
208
208
208
207
207
207
207
206
205
205
204
204
203
202
202
201
200
200
199
199
199
199
197
197
196
196
195
194
194
194
193
193
192
191
191
191
190
189
189
188
188
187
187
186
186
186
184
183
181
181
181
180
180
179
178
177
177
177
176
175
175
175
174
174
174
173
173
173
171
171
171
170
170
170
170
170
170
169
168
168
168
168
167
167
167
167
166
165
165
165
164
164
163
162
162
162
162
162
161
161
158
157
154
154
153
152
152
151
151
150
150
150
149
148
147
146
145
145
144
143
142
142
142
141
140
140
139
139
138
138
138
137
136
136
135
135
135
134
134
134
134
133
132
132
131
131
131
131
131
130
130
130
129
129
128
127
127
127
127
126
126
126
125
125
123
123
123
122
122
122
121
121
120
120
119
119
118
118
118
118
118
117
116
116
115
115
114
114
113
113
112
112
111
110
110
109
109
109
108
108
107
107
107
107
106
105
104
102
102
102
100
100
